33D32945 STP File, STP Format Version 1.0

SECTION Comment
Name    "i080-324"
Creator "Cees Duin"
Remark  "Incidence graph"
END

SECTION Graph
Nodes 80
Edges 3160
E 1 2 296
E 1 3 301
E 1 4 305
E 1 5 306
E 1 6 297
E 1 7 299
E 1 8 306
E 1 9 310
E 1 10 292
E 1 11 305
E 1 12 296
E 1 13 288
E 1 14 299
E 1 15 291
E 1 16 299
E 1 17 298
E 1 18 303
E 1 19 293
E 1 20 303
E 1 21 197
E 1 22 208
E 1 23 192
E 1 24 204
E 1 25 204
E 1 26 204
E 1 27 202
E 1 28 192
E 1 29 199
E 1 30 197
E 1 31 198
E 1 32 198
E 1 33 198
E 1 34 194
E 1 35 207
E 1 36 197
E 1 37 200
E 1 38 195
E 1 39 207
E 1 40 199
E 1 41 204
E 1 42 197
E 1 43 198
E 1 44 203
E 1 45 208
E 1 46 200
E 1 47 194
E 1 48 201
E 1 49 197
E 1 50 205
E 1 51 199
E 1 52 194
E 1 53 207
E 1 54 196
E 1 55 204
E 1 56 199
E 1 57 189
E 1 58 193
E 1 59 202
E 1 60 194
E 1 61 184
E 1 62 201
E 1 63 204
E 1 64 211
E 1 65 199
E 1 66 204
E 1 67 192
E 1 68 206
E 1 69 204
E 1 70 203
E 1 71 202
E 1 72 196
E 1 73 196
E 1 74 200
E 1 75 199
E 1 76 201
E 1 77 201
E 1 78 198
E 1 79 200
E 1 80 196
E 2 3 303
E 2 4 302
E 2 5 287
E 2 6 297
E 2 7 301
E 2 8 294
E 2 9 302
E 2 10 302
E 2 11 291
E 2 12 293
E 2 13 298
E 2 14 286
E 2 15 297
E 2 16 295
E 2 17 297
E 2 18 300
E 2 19 310
E 2 20 301
E 2 21 201
E 2 22 198
E 2 23 199
E 2 24 198
E 2 25 205
E 2 26 199
E 2 27 193
E 2 28 205
E 2 29 199
E 2 30 200
E 2 31 212
E 2 32 191
E 2 33 202
E 2 34 202
E 2 35 203
E 2 36 198
E 2 37 195
E 2 38 201
E 2 39 205
E 2 40 200
E 2 41 201
E 2 42 202
E 2 43 201
E 2 44 189
E 2 45 195
E 2 46 197
E 2 47 188
E 2 48 200
E 2 49 192
E 2 50 197
E 2 51 189
E 2 52 207
E 2 53 199
E 2 54 206
E 2 55 196
E 2 56 202
E 2 57 204
E 2 58 198
E 2 59 198
E 2 60 199
E 2 61 208
E 2 62 204
E 2 63 188
E 2 64 197
E 2 65 201
E 2 66 198
E 2 67 199
E 2 68 195
E 2 69 202
E 2 70 209
E 2 71 202
E 2 72 200
E 2 73 202
E 2 74 209
E 2 75 199
E 2 76 190
E 2 77 193
E 2 78 210
E 2 79 198
E 2 80 201
E 3 4 306
E 3 5 303
E 3 6 302
E 3 7 294
E 3 8 305
E 3 9 300
E 3 10 295
E 3 11 302
E 3 12 300
E 3 13 296
E 3 14 302
E 3 15 298
E 3 16 295
E 3 17 292
E 3 18 301
E 3 19 297
E 3 20 300
E 3 21 203
E 3 22 198
E 3 23 190
E 3 24 196
E 3 25 201
E 3 26 198
E 3 27 204
E 3 28 204
E 3 29 211
E 3 30 203
E 3 31 201
E 3 32 195
E 3 33 203
E 3 34 194
E 3 35 196
E 3 36 200
E 3 37 209
E 3 38 202
E 3 39 199
E 3 40 197
E 3 41 191
E 3 42 201
E 3 43 201
E 3 44 197
E 3 45 202
E 3 46 200
E 3 47 208
E 3 48 210
E 3 49 193
E 3 50 203
E 3 51 191
E 3 52 196
E 3 53 202
E 3 54 196
E 3 55 204
E 3 56 203
E 3 57 198
E 3 58 196
E 3 59 199
E 3 60 193
E 3 61 204
E 3 62 188
E 3 63 190
E 3 64 199
E 3 65 211
E 3 66 200
E 3 67 200
E 3 68 201
E 3 69 196
E 3 70 213
E 3 71 198
E 3 72 195
E 3 73 192
E 3 74 198
E 3 75 196
E 3 76 209
E 3 77 204
E 3 78 206
E 3 79 196
E 3 80 200
E 4 5 294
E 4 6 293
E 4 7 301
E 4 8 296
E 4 9 295
E 4 10 303
E 4 11 297
E 4 12 296
E 4 13 301
E 4 14 300
E 4 15 302
E 4 16 308
E 4 17 289
E 4 18 296
E 4 19 307
E 4 20 301
E 4 21 196
E 4 22 197
E 4 23 194
E 4 24 198
E 4 25 206
E 4 26 196
E 4 27 200
E 4 28 196
E 4 29 197
E 4 30 204
E 4 31 205
E 4 32 204
E 4 33 200
E 4 34 205
E 4 35 200
E 4 36 201
E 4 37 192
E 4 38 190
E 4 39 204
E 4 40 206
E 4 41 202
E 4 42 193
E 4 43 195
E 4 44 195
E 4 45 196
E 4 46 196
E 4 47 201
E 4 48 199
E 4 49 197
E 4 50 206
E 4 51 206
E 4 52 197
E 4 53 206
E 4 54 197
E 4 55 194
E 4 56 203
E 4 57 197
E 4 58 195
E 4 59 205
E 4 60 201
E 4 61 203
E 4 62 198
E 4 63 196
E 4 64 203
E 4 65 198
E 4 66 199
E 4 67 213
E 4 68 202
E 4 69 199
E 4 70 198
E 4 71 203
E 4 72 203
E 4 73 199
E 4 74 193
E 4 75 206
E 4 76 192
E 4 77 198
E 4 78 198
E 4 79 193
E 4 80 199
E 5 6 307
E 5 7 304
E 5 8 300
E 5 9 296
E 5 10 306
E 5 11 294
E 5 12 294
E 5 13 296
E 5 14 298
E 5 15 296
E 5 16 300
E 5 17 296
E 5 18 300
E 5 19 300
E 5 20 298
E 5 21 204
E 5 22 195
E 5 23 200
E 5 24 201
E 5 25 208
E 5 26 206
E 5 27 202
E 5 28 187
E 5 29 201
E 5 30 210
E 5 31 203
E 5 32 199
E 5 33 201
E 5 34 202
E 5 35 197
E 5 36 192
E 5 37 205
E 5 38 197
E 5 39 203
E 5 40 200
E 5 41 191
E 5 42 198
E 5 43 209
E 5 44 202
E 5 45 201
E 5 46 190
E 5 47 218
E 5 48 195
E 5 49 199
E 5 50 200
E 5 51 208
E 5 52 199
E 5 53 209
E 5 54 203
E 5 55 197
E 5 56 199
E 5 57 190
E 5 58 197
E 5 59 201
E 5 60 201
E 5 61 196
E 5 62 204
E 5 63 204
E 5 64 194
E 5 65 197
E 5 66 195
E 5 67 198
E 5 68 203
E 5 69 205
E 5 70 196
E 5 71 199
E 5 72 196
E 5 73 199
E 5 74 201
E 5 75 188
E 5 76 202
E 5 77 199
E 5 78 201
E 5 79 199
E 5 80 192
E 6 7 308
E 6 8 297
E 6 9 284
E 6 10 294
E 6 11 296
E 6 12 291
E 6 13 298
E 6 14 298
E 6 15 298
E 6 16 303
E 6 17 301
E 6 18 299
E 6 19 295
E 6 20 299
E 6 21 190
E 6 22 199
E 6 23 202
E 6 24 198
E 6 25 203
E 6 26 200
E 6 27 205
E 6 28 200
E 6 29 189
E 6 30 197
E 6 31 193
E 6 32 200
E 6 33 195
E 6 34 199
E 6 35 198
E 6 36 197
E 6 37 203
E 6 38 208
E 6 39 192
E 6 40 200
E 6 41 202
E 6 42 192
E 6 43 203
E 6 44 212
E 6 45 204
E 6 46 204
E 6 47 197
E 6 48 197
E 6 49 202
E 6 50 207
E 6 51 201
E 6 52 189
E 6 53 195
E 6 54 191
E 6 55 195
E 6 56 194
E 6 57 205
E 6 58 202
E 6 59 206
E 6 60 198
E 6 61 193
E 6 62 195
E 6 63 202
E 6 64 199
E 6 65 195
E 6 66 204
E 6 67 199
E 6 68 211
E 6 69 207
E 6 70 200
E 6 71 200
E 6 72 199
E 6 73 200
E 6 74 191
E 6 75 209
E 6 76 195
E 6 77 197
E 6 78 207
E 6 79 192
E 6 80 195
E 7 8 302
E 7 9 298
E 7 10 295
E 7 11 302
E 7 12 300
E 7 13 297
E 7 14 299
E 7 15 299
E 7 16 298
E 7 17 294
E 7 18 308
E 7 19 310
E 7 20 302
E 7 21 202
E 7 22 198
E 7 23 194
E 7 24 199
E 7 25 197
E 7 26 204
E 7 27 200
E 7 28 195
E 7 29 195
E 7 30 200
E 7 31 210
E 7 32 205
E 7 33 201
E 7 34 202
E 7 35 211
E 7 36 196
E 7 37 200
E 7 38 199
E 7 39 206
E 7 40 205
E 7 41 204
E 7 42 200
E 7 43 194
E 7 44 194
E 7 45 200
E 7 46 197
E 7 47 192
E 7 48 206
E 7 49 197
E 7 50 199
E 7 51 206
E 7 52 194
E 7 53 204
E 7 54 197
E 7 55 198
E 7 56 196
E 7 57 202
E 7 58 203
E 7 59 205
E 7 60 194
E 7 61 196
E 7 62 206
E 7 63 208
E 7 64 200
E 7 65 188
E 7 66 197
E 7 67 192
E 7 68 199
E 7 69 195
E 7 70 194
E 7 71 197
E 7 72 198
E 7 73 197
E 7 74 192
E 7 75 208
E 7 76 198
E 7 77 199
E 7 78 197
E 7 79 203
E 7 80 200
E 8 9 303
E 8 10 296
E 8 11 295
E 8 12 301
E 8 13 306
E 8 14 301
E 8 15 300
E 8 16 299
E 8 17 300
E 8 18 301
E 8 19 301
E 8 20 308
E 8 21 196
E 8 22 201
E 8 23 200
E 8 24 200
E 8 25 195
E 8 26 200
E 8 27 200
E 8 28 196
E 8 29 195
E 8 30 204
E 8 31 192
E 8 32 193
E 8 33 205
E 8 34 198
E 8 35 212
E 8 36 195
E 8 37 200
E 8 38 194
E 8 39 193
E 8 40 196
E 8 41 200
E 8 42 199
E 8 43 199
E 8 44 201
E 8 45 192
E 8 46 196
E 8 47 203
E 8 48 195
E 8 49 203
E 8 50 198
E 8 51 195
E 8 52 197
E 8 53 198
E 8 54 202
E 8 55 198
E 8 56 203
E 8 57 204
E 8 58 190
E 8 59 200
E 8 60 198
E 8 61 195
E 8 62 199
E 8 63 196
E 8 64 204
E 8 65 209
E 8 66 182
E 8 67 203
E 8 68 206
E 8 69 197
E 8 70 201
E 8 71 192
E 8 72 200
E 8 73 196
E 8 74 197
E 8 75 202
E 8 76 204
E 8 77 199
E 8 78 201
E 8 79 196
E 8 80 203
E 9 10 300
E 9 11 297
E 9 12 306
E 9 13 302
E 9 14 300
E 9 15 296
E 9 16 293
E 9 17 301
E 9 18 298
E 9 19 305
E 9 20 289
E 9 21 204
E 9 22 195
E 9 23 204
E 9 24 195
E 9 25 198
E 9 26 195
E 9 27 197
E 9 28 194
E 9 29 196
E 9 30 205
E 9 31 183
E 9 32 192
E 9 33 197
E 9 34 201
E 9 35 199
E 9 36 207
E 9 37 199
E 9 38 196
E 9 39 192
E 9 40 192
E 9 41 200
E 9 42 195
E 9 43 204
E 9 44 194
E 9 45 185
E 9 46 200
E 9 47 200
E 9 48 197
E 9 49 204
E 9 50 191
E 9 51 200
E 9 52 205
E 9 53 201
E 9 54 195
E 9 55 201
E 9 56 200
E 9 57 198
E 9 58 200
E 9 59 203
E 9 60 205
E 9 61 197
E 9 62 204
E 9 63 204
E 9 64 204
E 9 65 200
E 9 66 211
E 9 67 191
E 9 68 201
E 9 69 194
E 9 70 200
E 9 71 197
E 9 72 203
E 9 73 189
E 9 74 191
E 9 75 196
E 9 76 195
E 9 77 198
E 9 78 213
E 9 79 202
E 9 80 203
E 10 11 301
E 10 12 303
E 10 13 296
E 10 14 299
E 10 15 301
E 10 16 308
E 10 17 291
E 10 18 299
E 10 19 300
E 10 20 296
E 10 21 200
E 10 22 205
E 10 23 195
E 10 24 203
E 10 25 193
E 10 26 197
E 10 27 198
E 10 28 196
E 10 29 208
E 10 30 198
E 10 31 196
E 10 32 194
E 10 33 205
E 10 34 200
E 10 35 191
E 10 36 199
E 10 37 206
E 10 38 202
E 10 39 207
E 10 40 207
E 10 41 198
E 10 42 196
E 10 43 200
E 10 44 203
E 10 45 202
E 10 46 210
E 10 47 208
E 10 48 204
E 10 49 194
E 10 50 204
E 10 51 197
E 10 52 209
E 10 53 206
E 10 54 201
E 10 55 206
E 10 56 207
E 10 57 205
E 10 58 199
E 10 59 199
E 10 60 204
E 10 61 210
E 10 62 203
E 10 63 204
E 10 64 198
E 10 65 192
E 10 66 201
E 10 67 200
E 10 68 208
E 10 69 194
E 10 70 202
E 10 71 207
E 10 72 195
E 10 73 205
E 10 74 195
E 10 75 205
E 10 76 192
E 10 77 205
E 10 78 199
E 10 79 189
E 10 80 206
E 11 12 306
E 11 13 297
E 11 14 299
E 11 15 296
E 11 16 296
E 11 17 302
E 11 18 300
E 11 19 296
E 11 20 302
E 11 21 205
E 11 22 201
E 11 23 195
E 11 24 191
E 11 25 197
E 11 26 190
E 11 27 204
E 11 28 190
E 11 29 192
E 11 30 195
E 11 31 200
E 11 32 196
E 11 33 196
E 11 34 199
E 11 35 201
E 11 36 206
E 11 37 195
E 11 38 194
E 11 39 202
E 11 40 198
E 11 41 193
E 11 42 194
E 11 43 198
E 11 44 208
E 11 45 205
E 11 46 202
E 11 47 192
E 11 48 204
E 11 49 204
E 11 50 204
E 11 51 205
E 11 52 196
E 11 53 191
E 11 54 200
E 11 55 202
E 11 56 202
E 11 57 189
E 11 58 199
E 11 59 192
E 11 60 204
E 11 61 194
E 11 62 193
E 11 63 205
E 11 64 201
E 11 65 209
E 11 66 197
E 11 67 211
E 11 68 201
E 11 69 200
E 11 70 196
E 11 71 204
E 11 72 203
E 11 73 198
E 11 74 201
E 11 75 193
E 11 76 202
E 11 77 202
E 11 78 195
E 11 79 197
E 11 80 210
E 12 13 299
E 12 14 296
E 12 15 297
E 12 16 302
E 12 17 307
E 12 18 299
E 12 19 301
E 12 20 303
E 12 21 209
E 12 22 202
E 12 23 208
E 12 24 196
E 12 25 207
E 12 26 203
E 12 27 203
E 12 28 197
E 12 29 202
E 12 30 205
E 12 31 191
E 12 32 202
E 12 33 206
E 12 34 203
E 12 35 197
E 12 36 196
E 12 37 198
E 12 38 204
E 12 39 200
E 12 40 200
E 12 41 201
E 12 42 201
E 12 43 201
E 12 44 203
E 12 45 205
E 12 46 200
E 12 47 197
E 12 48 202
E 12 49 191
E 12 50 197
E 12 51 202
E 12 52 199
E 12 53 197
E 12 54 207
E 12 55 210
E 12 56 201
E 12 57 199
E 12 58 202
E 12 59 204
E 12 60 200
E 12 61 197
E 12 62 199
E 12 63 198
E 12 64 206
E 12 65 198
E 12 66 190
E 12 67 204
E 12 68 198
E 12 69 197
E 12 70 208
E 12 71 194
E 12 72 202
E 12 73 207
E 12 74 201
E 12 75 201
E 12 76 191
E 12 77 199
E 12 78 200
E 12 79 204
E 12 80 198
E 13 14 292
E 13 15 304
E 13 16 306
E 13 17 309
E 13 18 303
E 13 19 300
E 13 20 291
E 13 21 194
E 13 22 200
E 13 23 205
E 13 24 198
E 13 25 199
E 13 26 203
E 13 27 207
E 13 28 203
E 13 29 202
E 13 30 205
E 13 31 201
E 13 32 199
E 13 33 197
E 13 34 199
E 13 35 212
E 13 36 199
E 13 37 199
E 13 38 203
E 13 39 189
E 13 40 193
E 13 41 199
E 13 42 207
E 13 43 202
E 13 44 198
E 13 45 201
E 13 46 203
E 13 47 200
E 13 48 205
E 13 49 209
E 13 50 198
E 13 51 203
E 13 52 196
E 13 53 198
E 13 54 197
E 13 55 194
E 13 56 188
E 13 57 202
E 13 58 196
E 13 59 199
E 13 60 199
E 13 61 197
E 13 62 206
E 13 63 202
E 13 64 197
E 13 65 202
E 13 66 199
E 13 67 205
E 13 68 200
E 13 69 199
E 13 70 200
E 13 71 203
E 13 72 205
E 13 73 197
E 13 74 191
E 13 75 198
E 13 76 193
E 13 77 204
E 13 78 206
E 13 79 203
E 13 80 196
E 14 15 303
E 14 16 306
E 14 17 287
E 14 18 296
E 14 19 303
E 14 20 303
E 14 21 202
E 14 22 202
E 14 23 191
E 14 24 196
E 14 25 200
E 14 26 202
E 14 27 200
E 14 28 191
E 14 29 210
E 14 30 206
E 14 31 205
E 14 32 203
E 14 33 198
E 14 34 206
E 14 35 197
E 14 36 197
E 14 37 195
E 14 38 205
E 14 39 208
E 14 40 204
E 14 41 205
E 14 42 200
E 14 43 206
E 14 44 200
E 14 45 199
E 14 46 194
E 14 47 203
E 14 48 193
E 14 49 199
E 14 50 197
E 14 51 198
E 14 52 213
E 14 53 200
E 14 54 204
E 14 55 191
E 14 56 199
E 14 57 198
E 14 58 193
E 14 59 190
E 14 60 201
E 14 61 193
E 14 62 193
E 14 63 190
E 14 64 201
E 14 65 200
E 14 66 198
E 14 67 194
E 14 68 205
E 14 69 203
E 14 70 201
E 14 71 205
E 14 72 196
E 14 73 203
E 14 74 199
E 14 75 207
E 14 76 196
E 14 77 194
E 14 78 205
E 14 79 192
E 14 80 200
E 15 16 292
E 15 17 299
E 15 18 301
E 15 19 298
E 15 20 294
E 15 21 201
E 15 22 202
E 15 23 192
E 15 24 204
E 15 25 196
E 15 26 194
E 15 27 204
E 15 28 197
E 15 29 192
E 15 30 201
E 15 31 200
E 15 32 198
E 15 33 210
E 15 34 198
E 15 35 201
E 15 36 201
E 15 37 196
E 15 38 208
E 15 39 199
E 15 40 198
E 15 41 201
E 15 42 191
E 15 43 200
E 15 44 207
E 15 45 196
E 15 46 196
E 15 47 199
E 15 48 197
E 15 49 204
E 15 50 195
E 15 51 198
E 15 52 199
E 15 53 200
E 15 54 196
E 15 55 201
E 15 56 196
E 15 57 202
E 15 58 202
E 15 59 196
E 15 60 192
E 15 61 190
E 15 62 198
E 15 63 205
E 15 64 199
E 15 65 199
E 15 66 202
E 15 67 193
E 15 68 202
E 15 69 204
E 15 70 200
E 15 71 202
E 15 72 200
E 15 73 200
E 15 74 199
E 15 75 197
E 15 76 203
E 15 77 201
E 15 78 192
E 15 79 202
E 15 80 195
E 16 17 304
E 16 18 297
E 16 19 294
E 16 20 300
E 16 21 199
E 16 22 205
E 16 23 195
E 16 24 196
E 16 25 197
E 16 26 198
E 16 27 199
E 16 28 204
E 16 29 196
E 16 30 194
E 16 31 200
E 16 32 199
E 16 33 197
E 16 34 198
E 16 35 196
E 16 36 191
E 16 37 197
E 16 38 198
E 16 39 201
E 16 40 205
E 16 41 197
E 16 42 198
E 16 43 205
E 16 44 196
E 16 45 197
E 16 46 198
E 16 47 191
E 16 48 201
E 16 49 202
E 16 50 192
E 16 51 194
E 16 52 194
E 16 53 201
E 16 54 204
E 16 55 188
E 16 56 198
E 16 57 200
E 16 58 193
E 16 59 196
E 16 60 196
E 16 61 197
E 16 62 201
E 16 63 203
E 16 64 193
E 16 65 199
E 16 66 201
E 16 67 198
E 16 68 203
E 16 69 199
E 16 70 201
E 16 71 198
E 16 72 209
E 16 73 204
E 16 74 197
E 16 75 197
E 16 76 210
E 16 77 194
E 16 78 204
E 16 79 188
E 16 80 181
E 17 18 301
E 17 19 299
E 17 20 298
E 17 21 199
E 17 22 201
E 17 23 200
E 17 24 198
E 17 25 202
E 17 26 203
E 17 27 201
E 17 28 197
E 17 29 199
E 17 30 194
E 17 31 201
E 17 32 204
E 17 33 200
E 17 34 206
E 17 35 205
E 17 36 209
E 17 37 195
E 17 38 200
E 17 39 202
E 17 40 207
E 17 41 202
E 17 42 197
E 17 43 200
E 17 44 201
E 17 45 203
E 17 46 203
E 17 47 199
E 17 48 194
E 17 49 203
E 17 50 194
E 17 51 207
E 17 52 201
E 17 53 203
E 17 54 201
E 17 55 199
E 17 56 194
E 17 57 207
E 17 58 203
E 17 59 194
E 17 60 202
E 17 61 198
E 17 62 187
E 17 63 199
E 17 64 203
E 17 65 203
E 17 66 197
E 17 67 207
E 17 68 204
E 17 69 197
E 17 70 206
E 17 71 196
E 17 72 208
E 17 73 197
E 17 74 198
E 17 75 200
E 17 76 201
E 17 77 194
E 17 78 201
E 17 79 194
E 17 80 191
E 18 19 295
E 18 20 298
E 18 21 201
E 18 22 193
E 18 23 198
E 18 24 199
E 18 25 206
E 18 26 196
E 18 27 194
E 18 28 199
E 18 29 204
E 18 30 201
E 18 31 204
E 18 32 202
E 18 33 193
E 18 34 204
E 18 35 200
E 18 36 197
E 18 37 203
E 18 38 196
E 18 39 202
E 18 40 202
E 18 41 191
E 18 42 201
E 18 43 197
E 18 44 194
E 18 45 196
E 18 46 193
E 18 47 202
E 18 48 209
E 18 49 202
E 18 50 198
E 18 51 191
E 18 52 197
E 18 53 205
E 18 54 198
E 18 55 202
E 18 56 200
E 18 57 195
E 18 58 196
E 18 59 200
E 18 60 206
E 18 61 190
E 18 62 213
E 18 63 193
E 18 64 197
E 18 65 198
E 18 66 193
E 18 67 200
E 18 68 201
E 18 69 205
E 18 70 189
E 18 71 200
E 18 72 200
E 18 73 206
E 18 74 198
E 18 75 197
E 18 76 194
E 18 77 195
E 18 78 201
E 18 79 205
E 18 80 192
E 19 20 299
E 19 21 195
E 19 22 199
E 19 23 194
E 19 24 200
E 19 25 193
E 19 26 200
E 19 27 203
E 19 28 194
E 19 29 204
E 19 30 202
E 19 31 195
E 19 32 194
E 19 33 208
E 19 34 203
E 19 35 194
E 19 36 201
E 19 37 202
E 19 38 198
E 19 39 204
E 19 40 204
E 19 41 197
E 19 42 198
E 19 43 197
E 19 44 206
E 19 45 200
E 19 46 202
E 19 47 202
E 19 48 209
E 19 49 196
E 19 50 199
E 19 51 206
E 19 52 205
E 19 53 200
E 19 54 206
E 19 55 203
E 19 56 195
E 19 57 202
E 19 58 200
E 19 59 208
E 19 60 198
E 19 61 190
E 19 62 189
E 19 63 205
E 19 64 194
E 19 65 199
E 19 66 196
E 19 67 196
E 19 68 195
E 19 69 205
E 19 70 191
E 19 71 197
E 19 72 197
E 19 73 204
E 19 74 209
E 19 75 204
E 19 76 203
E 19 77 202
E 19 78 200
E 19 79 204
E 19 80 200
E 20 21 205
E 20 22 188
E 20 23 208
E 20 24 196
E 20 25 200
E 20 26 190
E 20 27 204
E 20 28 207
E 20 29 203
E 20 30 199
E 20 31 203
E 20 32 195
E 20 33 209
E 20 34 201
E 20 35 206
E 20 36 210
E 20 37 201
E 20 38 197
E 20 39 205
E 20 40 201
E 20 41 210
E 20 42 193
E 20 43 199
E 20 44 202
E 20 45 198
E 20 46 207
E 20 47 195
E 20 48 206
E 20 49 192
E 20 50 204
E 20 51 197
E 20 52 206
E 20 53 197
E 20 54 198
E 20 55 199
E 20 56 205
E 20 57 193
E 20 58 198
E 20 59 197
E 20 60 197
E 20 61 200
E 20 62 204
E 20 63 190
E 20 64 179
E 20 65 198
E 20 66 197
E 20 67 205
E 20 68 195
E 20 69 195
E 20 70 202
E 20 71 216
E 20 72 200
E 20 73 201
E 20 74 204
E 20 75 196
E 20 76 195
E 20 77 197
E 20 78 200
E 20 79 197
E 20 80 197
E 21 22 96
E 21 23 101
E 21 24 91
E 21 25 99
E 21 26 105
E 21 27 90
E 21 28 102
E 21 29 104
E 21 30 99
E 21 31 99
E 21 32 92
E 21 33 104
E 21 34 106
E 21 35 100
E 21 36 95
E 21 37 104
E 21 38 97
E 21 39 96
E 21 40 93
E 21 41 93
E 21 42 99
E 21 43 103
E 21 44 104
E 21 45 96
E 21 46 106
E 21 47 99
E 21 48 98
E 21 49 101
E 21 50 97
E 21 51 108
E 21 52 98
E 21 53 102
E 21 54 95
E 21 55 98
E 21 56 103
E 21 57 97
E 21 58 101
E 21 59 105
E 21 60 102
E 21 61 96
E 21 62 105
E 21 63 96
E 21 64 96
E 21 65 99
E 21 66 100
E 21 67 105
E 21 68 96
E 21 69 97
E 21 70 102
E 21 71 94
E 21 72 90
E 21 73 108
E 21 74 101
E 21 75 105
E 21 76 103
E 21 77 95
E 21 78 103
E 21 79 91
E 21 80 100
E 22 23 105
E 22 24 99
E 22 25 98
E 22 26 108
E 22 27 105
E 22 28 104
E 22 29 101
E 22 30 94
E 22 31 99
E 22 32 104
E 22 33 101
E 22 34 103
E 22 35 102
E 22 36 97
E 22 37 98
E 22 38 101
E 22 39 100
E 22 40 97
E 22 41 103
E 22 42 94
E 22 43 106
E 22 44 103
E 22 45 105
E 22 46 109
E 22 47 100
E 22 48 98
E 22 49 92
E 22 50 100
E 22 51 100
E 22 52 99
E 22 53 110
E 22 54 98
E 22 55 90
E 22 56 103
E 22 57 101
E 22 58 105
E 22 59 97
E 22 60 99
E 22 61 99
E 22 62 107
E 22 63 103
E 22 64 99
E 22 65 110
E 22 66 103
E 22 67 96
E 22 68 96
E 22 69 102
E 22 70 102
E 22 71 94
E 22 72 92
E 22 73 93
E 22 74 103
E 22 75 103
E 22 76 102
E 22 77 107
E 22 78 106
E 22 79 105
E 22 80 95
E 23 24 90
E 23 25 94
E 23 26 96
E 23 27 106
E 23 28 96
E 23 29 107
E 23 30 98
E 23 31 99
E 23 32 102
E 23 33 103
E 23 34 99
E 23 35 97
E 23 36 99
E 23 37 97
E 23 38 93
E 23 39 99
E 23 40 97
E 23 41 106
E 23 42 103
E 23 43 99
E 23 44 101
E 23 45 98
E 23 46 105
E 23 47 96
E 23 48 96
E 23 49 91
E 23 50 97
E 23 51 98
E 23 52 104
E 23 53 99
E 23 54 92
E 23 55 101
E 23 56 98
E 23 57 103
E 23 58 89
E 23 59 97
E 23 60 98
E 23 61 100
E 23 62 97
E 23 63 95
E 23 64 106
E 23 65 101
E 23 66 102
E 23 67 97
E 23 68 107
E 23 69 101
E 23 70 97
E 23 71 111
E 23 72 99
E 23 73 106
E 23 74 95
E 23 75 91
E 23 76 96
E 23 77 105
E 23 78 102
E 23 79 93
E 23 80 102
E 24 25 104
E 24 26 100
E 24 27 96
E 24 28 90
E 24 29 95
E 24 30 104
E 24 31 102
E 24 32 101
E 24 33 102
E 24 34 113
E 24 35 110
E 24 36 105
E 24 37 112
E 24 38 102
E 24 39 100
E 24 40 97
E 24 41 104
E 24 42 104
E 24 43 108
E 24 44 102
E 24 45 99
E 24 46 105
E 24 47 91
E 24 48 101
E 24 49 103
E 24 50 103
E 24 51 92
E 24 52 102
E 24 53 110
E 24 54 100
E 24 55 92
E 24 56 98
E 24 57 102
E 24 58 96
E 24 59 100
E 24 60 94
E 24 61 94
E 24 62 95
E 24 63 95
E 24 64 99
E 24 65 105
E 24 66 101
E 24 67 97
E 24 68 97
E 24 69 104
E 24 70 109
E 24 71 101
E 24 72 104
E 24 73 95
E 24 74 96
E 24 75 93
E 24 76 93
E 24 77 102
E 24 78 98
E 24 79 102
E 24 80 94
E 25 26 93
E 25 27 104
E 25 28 98
E 25 29 103
E 25 30 104
E 25 31 100
E 25 32 106
E 25 33 95
E 25 34 101
E 25 35 101
E 25 36 97
E 25 37 103
E 25 38 95
E 25 39 102
E 25 40 90
E 25 41 95
E 25 42 97
E 25 43 98
E 25 44 100
E 25 45 98
E 25 46 103
E 25 47 106
E 25 48 97
E 25 49 103
E 25 50 107
E 25 51 112
E 25 52 92
E 25 53 97
E 25 54 98
E 25 55 104
E 25 56 94
E 25 57 97
E 25 58 92
E 25 59 102
E 25 60 101
E 25 61 96
E 25 62 95
E 25 63 95
E 25 64 103
E 25 65 93
E 25 66 96
E 25 67 103
E 25 68 104
E 25 69 99
E 25 70 102
E 25 71 96
E 25 72 100
E 25 73 102
E 25 74 89
E 25 75 94
E 25 76 104
E 25 77 103
E 25 78 96
E 25 79 102
E 25 80 103
E 26 27 101
E 26 28 98
E 26 29 91
E 26 30 105
E 26 31 104
E 26 32 98
E 26 33 108
E 26 34 89
E 26 35 100
E 26 36 98
E 26 37 96
E 26 38 94
E 26 39 97
E 26 40 96
E 26 41 97
E 26 42 96
E 26 43 101
E 26 44 104
E 26 45 93
E 26 46 98
E 26 47 108
E 26 48 94
E 26 49 95
E 26 50 103
E 26 51 97
E 26 52 86
E 26 53 105
E 26 54 104
E 26 55 98
E 26 56 100
E 26 57 105
E 26 58 96
E 26 59 97
E 26 60 93
E 26 61 102
E 26 62 100
E 26 63 105
E 26 64 98
E 26 65 109
E 26 66 99
E 26 67 101
E 26 68 100
E 26 69 101
E 26 70 103
E 26 71 85
E 26 72 108
E 26 73 104
E 26 74 94
E 26 75 101
E 26 76 94
E 26 77 93
E 26 78 101
E 26 79 88
E 26 80 105
E 27 28 96
E 27 29 89
E 27 30 95
E 27 31 100
E 27 32 96
E 27 33 102
E 27 34 100
E 27 35 102
E 27 36 103
E 27 37 97
E 27 38 107
E 27 39 102
E 27 40 94
E 27 41 109
E 27 42 96
E 27 43 92
E 27 44 101
E 27 45 102
E 27 46 104
E 27 47 97
E 27 48 98
E 27 49 99
E 27 50 105
E 27 51 102
E 27 52 111
E 27 53 95
E 27 54 99
E 27 55 100
E 27 56 100
E 27 57 101
E 27 58 106
E 27 59 105
E 27 60 103
E 27 61 98
E 27 62 115
E 27 63 101
E 27 64 103
E 27 65 91
E 27 66 95
E 27 67 103
E 27 68 100
E 27 69 99
E 27 70 101
E 27 71 94
E 27 72 98
E 27 73 104
E 27 74 99
E 27 75 101
E 27 76 102
E 27 77 93
E 27 78 106
E 27 79 96
E 27 80 99
E 28 29 112
E 28 30 99
E 28 31 89
E 28 32 102
E 28 33 111
E 28 34 95
E 28 35 102
E 28 36 96
E 28 37 95
E 28 38 97
E 28 39 105
E 28 40 103
E 28 41 105
E 28 42 102
E 28 43 105
E 28 44 95
E 28 45 103
E 28 46 99
E 28 47 104
E 28 48 109
E 28 49 95
E 28 50 105
E 28 51 95
E 28 52 106
E 28 53 96
E 28 54 105
E 28 55 105
E 28 56 95
E 28 57 92
E 28 58 98
E 28 59 101
E 28 60 107
E 28 61 99
E 28 62 97
E 28 63 96
E 28 64 101
E 28 65 98
E 28 66 96
E 28 67 102
E 28 68 101
E 28 69 103
E 28 70 104
E 28 71 96
E 28 72 97
E 28 73 103
E 28 74 98
E 28 75 94
E 28 76 93
E 28 77 100
E 28 78 99
E 28 79 91
E 28 80 107
E 29 30 107
E 29 31 98
E 29 32 104
E 29 33 111
E 29 34 103
E 29 35 99
E 29 36 111
E 29 37 102
E 29 38 99
E 29 39 99
E 29 40 97
E 29 41 100
E 29 42 105
E 29 43 99
E 29 44 102
E 29 45 98
E 29 46 101
E 29 47 96
E 29 48 102
E 29 49 99
E 29 50 106
E 29 51 106
E 29 52 93
E 29 53 100
E 29 54 104
E 29 55 99
E 29 56 99
E 29 57 103
E 29 58 106
E 29 59 104
E 29 60 105
E 29 61 100
E 29 62 100
E 29 63 101
E 29 64 97
E 29 65 94
E 29 66 92
E 29 67 103
E 29 68 97
E 29 69 96
E 29 70 107
E 29 71 106
E 29 72 104
E 29 73 93
E 29 74 101
E 29 75 104
E 29 76 111
E 29 77 92
E 29 78 90
E 29 79 97
E 29 80 92
E 30 31 95
E 30 32 98
E 30 33 95
E 30 34 110
E 30 35 101
E 30 36 101
E 30 37 102
E 30 38 94
E 30 39 96
E 30 40 104
E 30 41 91
E 30 42 107
E 30 43 100
E 30 44 112
E 30 45 102
E 30 46 101
E 30 47 95
E 30 48 95
E 30 49 90
E 30 50 103
E 30 51 101
E 30 52 106
E 30 53 107
E 30 54 101
E 30 55 101
E 30 56 106
E 30 57 101
E 30 58 102
E 30 59 100
E 30 60 91
E 30 61 104
E 30 62 92
E 30 63 101
E 30 64 95
E 30 65 91
E 30 66 99
E 30 67 95
E 30 68 99
E 30 69 106
E 30 70 99
E 30 71 107
E 30 72 97
E 30 73 103
E 30 74 104
E 30 75 105
E 30 76 97
E 30 77 102
E 30 78 99
E 30 79 91
E 30 80 98
E 31 32 104
E 31 33 103
E 31 34 104
E 31 35 101
E 31 36 91
E 31 37 100
E 31 38 95
E 31 39 96
E 31 40 97
E 31 41 95
E 31 42 100
E 31 43 111
E 31 44 93
E 31 45 99
E 31 46 101
E 31 47 94
E 31 48 98
E 31 49 103
E 31 50 105
E 31 51 109
E 31 52 99
E 31 53 94
E 31 54 95
E 31 55 97
E 31 56 95
E 31 57 96
E 31 58 99
E 31 59 101
E 31 60 102
E 31 61 99
E 31 62 101
E 31 63 102
E 31 64 98
E 31 65 103
E 31 66 105
E 31 67 96
E 31 68 103
E 31 69 104
E 31 70 97
E 31 71 103
E 31 72 98
E 31 73 97
E 31 74 104
E 31 75 100
E 31 76 95
E 31 77 97
E 31 78 100
E 31 79 99
E 31 80 105
E 32 33 105
E 32 34 92
E 32 35 101
E 32 36 103
E 32 37 101
E 32 38 107
E 32 39 98
E 32 40 98
E 32 41 102
E 32 42 96
E 32 43 96
E 32 44 108
E 32 45 110
E 32 46 99
E 32 47 100
E 32 48 103
E 32 49 110
E 32 50 102
E 32 51 103
E 32 52 97
E 32 53 88
E 32 54 104
E 32 55 107
E 32 56 91
E 32 57 106
E 32 58 102
E 32 59 101
E 32 60 107
E 32 61 97
E 32 62 103
E 32 63 109
E 32 64 97
E 32 65 99
E 32 66 104
E 32 67 96
E 32 68 101
E 32 69 97
E 32 70 97
E 32 71 104
E 32 72 100
E 32 73 99
E 32 74 92
E 32 75 107
E 32 76 101
E 32 77 90
E 32 78 94
E 32 79 97
E 32 80 105
E 33 34 86
E 33 35 102
E 33 36 101
E 33 37 100
E 33 38 106
E 33 39 102
E 33 40 105
E 33 41 93
E 33 42 105
E 33 43 98
E 33 44 106
E 33 45 98
E 33 46 97
E 33 47 103
E 33 48 98
E 33 49 95
E 33 50 93
E 33 51 98
E 33 52 98
E 33 53 104
E 33 54 89
E 33 55 97
E 33 56 100
E 33 57 99
E 33 58 98
E 33 59 99
E 33 60 97
E 33 61 104
E 33 62 102
E 33 63 95
E 33 64 103
E 33 65 93
E 33 66 100
E 33 67 93
E 33 68 100
E 33 69 101
E 33 70 102
E 33 71 89
E 33 72 98
E 33 73 100
E 33 74 101
E 33 75 94
E 33 76 105
E 33 77 101
E 33 78 97
E 33 79 101
E 33 80 99
E 34 35 98
E 34 36 102
E 34 37 101
E 34 38 99
E 34 39 98
E 34 40 102
E 34 41 99
E 34 42 98
E 34 43 102
E 34 44 97
E 34 45 94
E 34 46 99
E 34 47 101
E 34 48 102
E 34 49 97
E 34 50 96
E 34 51 102
E 34 52 96
E 34 53 100
E 34 54 106
E 34 55 105
E 34 56 99
E 34 57 94
E 34 58 108
E 34 59 98
E 34 60 99
E 34 61 93
E 34 62 101
E 34 63 106
E 34 64 96
E 34 65 89
E 34 66 94
E 34 67 103
E 34 68 105
E 34 69 98
E 34 70 100
E 34 71 96
E 34 72 96
E 34 73 100
E 34 74 104
E 34 75 102
E 34 76 113
E 34 77 100
E 34 78 97
E 34 79 89
E 34 80 98
E 35 36 102
E 35 37 88
E 35 38 96
E 35 39 104
E 35 40 98
E 35 41 102
E 35 42 102
E 35 43 104
E 35 44 97
E 35 45 95
E 35 46 102
E 35 47 97
E 35 48 95
E 35 49 101
E 35 50 99
E 35 51 99
E 35 52 97
E 35 53 102
E 35 54 102
E 35 55 102
E 35 56 99
E 35 57 91
E 35 58 96
E 35 59 106
E 35 60 99
E 35 61 102
E 35 62 99
E 35 63 103
E 35 64 97
E 35 65 92
E 35 66 110
E 35 67 109
E 35 68 102
E 35 69 101
E 35 70 98
E 35 71 100
E 35 72 104
E 35 73 109
E 35 74 96
E 35 75 102
E 35 76 101
E 35 77 92
E 35 78 96
E 35 79 103
E 35 80 109
E 36 37 97
E 36 38 102
E 36 39 97
E 36 40 105
E 36 41 93
E 36 42 101
E 36 43 104
E 36 44 106
E 36 45 96
E 36 46 103
E 36 47 95
E 36 48 106
E 36 49 101
E 36 50 95
E 36 51 101
E 36 52 94
E 36 53 109
E 36 54 105
E 36 55 104
E 36 56 102
E 36 57 100
E 36 58 101
E 36 59 98
E 36 60 93
E 36 61 89
E 36 62 107
E 36 63 104
E 36 64 103
E 36 65 105
E 36 66 108
E 36 67 99
E 36 68 95
E 36 69 97
E 36 70 105
E 36 71 98
E 36 72 110
E 36 73 93
E 36 74 98
E 36 75 96
E 36 76 99
E 36 77 95
E 36 78 99
E 36 79 97
E 36 80 101
E 37 38 97
E 37 39 98
E 37 40 106
E 37 41 93
E 37 42 102
E 37 43 93
E 37 44 96
E 37 45 103
E 37 46 104
E 37 47 106
E 37 48 101
E 37 49 108
E 37 50 107
E 37 51 101
E 37 52 102
E 37 53 103
E 37 54 101
E 37 55 99
E 37 56 102
E 37 57 105
E 37 58 97
E 37 59 86
E 37 60 98
E 37 61 95
E 37 62 104
E 37 63 102
E 37 64 103
E 37 65 106
E 37 66 98
E 37 67 91
E 37 68 98
E 37 69 98
E 37 70 99
E 37 71 94
E 37 72 96
E 37 73 95
E 37 74 92
E 37 75 105
E 37 76 98
E 37 77 109
E 37 78 102
E 37 79 100
E 37 80 94
E 38 39 97
E 38 40 98
E 38 41 98
E 38 42 103
E 38 43 92
E 38 44 105
E 38 45 99
E 38 46 104
E 38 47 104
E 38 48 107
E 38 49 102
E 38 50 105
E 38 51 99
E 38 52 99
E 38 53 100
E 38 54 100
E 38 55 95
E 38 56 95
E 38 57 97
E 38 58 101
E 38 59 93
E 38 60 101
E 38 61 103
E 38 62 101
E 38 63 98
E 38 64 92
E 38 65 93
E 38 66 95
E 38 67 94
E 38 68 90
E 38 69 97
E 38 70 105
E 38 71 102
E 38 72 91
E 38 73 100
E 38 74 106
E 38 75 100
E 38 76 105
E 38 77 101
E 38 78 102
E 38 79 102
E 38 80 107
E 39 40 106
E 39 41 98
E 39 42 104
E 39 43 101
E 39 44 103
E 39 45 104
E 39 46 109
E 39 47 97
E 39 48 94
E 39 49 105
E 39 50 94
E 39 51 97
E 39 52 96
E 39 53 101
E 39 54 94
E 39 55 101
E 39 56 102
E 39 57 102
E 39 58 97
E 39 59 91
E 39 60 104
E 39 61 90
E 39 62 98
E 39 63 94
E 39 64 91
E 39 65 102
E 39 66 95
E 39 67 99
E 39 68 97
E 39 69 103
E 39 70 100
E 39 71 103
E 39 72 95
E 39 73 103
E 39 74 100
E 39 75 97
E 39 76 109
E 39 77 100
E 39 78 86
E 39 79 112
E 39 80 103
E 40 41 99
E 40 42 94
E 40 43 95
E 40 44 94
E 40 45 96
E 40 46 98
E 40 47 104
E 40 48 99
E 40 49 102
E 40 50 99
E 40 51 96
E 40 52 99
E 40 53 99
E 40 54 106
E 40 55 92
E 40 56 91
E 40 57 93
E 40 58 95
E 40 59 89
E 40 60 93
E 40 61 97
E 40 62 101
E 40 63 97
E 40 64 94
E 40 65 94
E 40 66 100
E 40 67 91
E 40 68 98
E 40 69 113
E 40 70 96
E 40 71 95
E 40 72 99
E 40 73 94
E 40 74 112
E 40 75 91
E 40 76 102
E 40 77 98
E 40 78 94
E 40 79 104
E 40 80 105
E 41 42 103
E 41 43 106
E 41 44 103
E 41 45 100
E 41 46 87
E 41 47 110
E 41 48 92
E 41 49 98
E 41 50 104
E 41 51 99
E 41 52 110
E 41 53 102
E 41 54 92
E 41 55 100
E 41 56 99
E 41 57 98
E 41 58 86
E 41 59 102
E 41 60 104
E 41 61 98
E 41 62 103
E 41 63 103
E 41 64 99
E 41 65 99
E 41 66 100
E 41 67 100
E 41 68 102
E 41 69 96
E 41 70 107
E 41 71 116
E 41 72 101
E 41 73 99
E 41 74 90
E 41 75 103
E 41 76 99
E 41 77 101
E 41 78 101
E 41 79 88
E 41 80 98
E 42 43 99
E 42 44 93
E 42 45 101
E 42 46 100
E 42 47 98
E 42 48 104
E 42 49 100
E 42 50 102
E 42 51 93
E 42 52 103
E 42 53 105
E 42 54 92
E 42 55 91
E 42 56 94
E 42 57 108
E 42 58 106
E 42 59 106
E 42 60 100
E 42 61 101
E 42 62 108
E 42 63 92
E 42 64 100
E 42 65 93
E 42 66 101
E 42 67 104
E 42 68 100
E 42 69 102
E 42 70 101
E 42 71 103
E 42 72 90
E 42 73 105
E 42 74 94
E 42 75 101
E 42 76 88
E 42 77 91
E 42 78 96
E 42 79 96
E 42 80 101
E 43 44 104
E 43 45 90
E 43 46 102
E 43 47 95
E 43 48 105
E 43 49 87
E 43 50 98
E 43 51 99
E 43 52 102
E 43 53 98
E 43 54 103
E 43 55 97
E 43 56 101
E 43 57 110
E 43 58 96
E 43 59 99
E 43 60 104
E 43 61 90
E 43 62 100
E 43 63 95
E 43 64 100
E 43 65 95
E 43 66 104
E 43 67 105
E 43 68 104
E 43 69 105
E 43 70 94
E 43 71 94
E 43 72 103
E 43 73 98
E 43 74 88
E 43 75 97
E 43 76 107
E 43 77 96
E 43 78 107
E 43 79 102
E 43 80 103
E 44 45 98
E 44 46 113
E 44 47 106
E 44 48 92
E 44 49 107
E 44 50 104
E 44 51 91
E 44 52 95
E 44 53 98
E 44 54 97
E 44 55 101
E 44 56 106
E 44 57 101
E 44 58 101
E 44 59 95
E 44 60 100
E 44 61 103
E 44 62 97
E 44 63 97
E 44 64 88
E 44 65 98
E 44 66 90
E 44 67 100
E 44 68 96
E 44 69 108
E 44 70 101
E 44 71 99
E 44 72 98
E 44 73 94
E 44 74 103
E 44 75 106
E 44 76 94
E 44 77 102
E 44 78 97
E 44 79 92
E 44 80 99
E 45 46 99
E 45 47 100
E 45 48 100
E 45 49 106
E 45 50 102
E 45 51 97
E 45 52 105
E 45 53 101
E 45 54 101
E 45 55 102
E 45 56 106
E 45 57 95
E 45 58 95
E 45 59 96
E 45 60 96
E 45 61 93
E 45 62 95
E 45 63 99
E 45 64 105
E 45 65 99
E 45 66 90
E 45 67 99
E 45 68 104
E 45 69 101
E 45 70 102
E 45 71 90
E 45 72 99
E 45 73 104
E 45 74 104
E 45 75 91
E 45 76 107
E 45 77 103
E 45 78 89
E 45 79 99
E 45 80 89
E 46 47 99
E 46 48 99
E 46 49 98
E 46 50 99
E 46 51 99
E 46 52 98
E 46 53 98
E 46 54 93
E 46 55 95
E 46 56 102
E 46 57 98
E 46 58 102
E 46 59 108
E 46 60 98
E 46 61 89
E 46 62 102
E 46 63 98
E 46 64 93
E 46 65 106
E 46 66 106
E 46 67 97
E 46 68 109
E 46 69 92
E 46 70 99
E 46 71 99
E 46 72 91
E 46 73 100
E 46 74 99
E 46 75 111
E 46 76 109
E 46 77 94
E 46 78 102
E 46 79 99
E 46 80 97
E 47 48 103
E 47 49 103
E 47 50 103
E 47 51 102
E 47 52 106
E 47 53 97
E 47 54 98
E 47 55 96
E 47 56 100
E 47 57 90
E 47 58 104
E 47 59 92
E 47 60 98
E 47 61 99
E 47 62 102
E 47 63 103
E 47 64 101
E 47 65 104
E 47 66 94
E 47 67 101
E 47 68 104
E 47 69 95
E 47 70 99
E 47 71 96
E 47 72 105
E 47 73 105
E 47 74 100
E 47 75 103
E 47 76 103
E 47 77 103
E 47 78 99
E 47 79 100
E 47 80 91
E 48 49 102
E 48 50 103
E 48 51 96
E 48 52 98
E 48 53 101
E 48 54 99
E 48 55 100
E 48 56 102
E 48 57 101
E 48 58 91
E 48 59 97
E 48 60 104
E 48 61 105
E 48 62 102
E 48 63 105
E 48 64 101
E 48 65 103
E 48 66 96
E 48 67 95
E 48 68 94
E 48 69 102
E 48 70 99
E 48 71 97
E 48 72 100
E 48 73 103
E 48 74 92
E 48 75 95
E 48 76 101
E 48 77 102
E 48 78 107
E 48 79 103
E 48 80 92
E 49 50 100
E 49 51 91
E 49 52 98
E 49 53 95
E 49 54 103
E 49 55 96
E 49 56 98
E 49 57 94
E 49 58 101
E 49 59 97
E 49 60 100
E 49 61 99
E 49 62 92
E 49 63 100
E 49 64 100
E 49 65 93
E 49 66 100
E 49 67 104
E 49 68 108
E 49 69 100
E 49 70 94
E 49 71 99
E 49 72 104
E 49 73 98
E 49 74 112
E 49 75 97
E 49 76 97
E 49 77 95
E 49 78 103
E 49 79 98
E 49 80 93
E 50 51 97
E 50 52 104
E 50 53 102
E 50 54 95
E 50 55 94
E 50 56 89
E 50 57 92
E 50 58 98
E 50 59 107
E 50 60 96
E 50 61 104
E 50 62 97
E 50 63 89
E 50 64 99
E 50 65 97
E 50 66 104
E 50 67 95
E 50 68 98
E 50 69 94
E 50 70 106
E 50 71 94
E 50 72 102
E 50 73 94
E 50 74 102
E 50 75 94
E 50 76 97
E 50 77 104
E 50 78 97
E 50 79 103
E 50 80 110
E 51 52 105
E 51 53 98
E 51 54 106
E 51 55 88
E 51 56 104
E 51 57 104
E 51 58 100
E 51 59 97
E 51 60 94
E 51 61 99
E 51 62 97
E 51 63 94
E 51 64 97
E 51 65 94
E 51 66 97
E 51 67 104
E 51 68 102
E 51 69 96
E 51 70 97
E 51 71 101
E 51 72 107
E 51 73 99
E 51 74 99
E 51 75 99
E 51 76 92
E 51 77 97
E 51 78 96
E 51 79 95
E 51 80 106
E 52 53 96
E 52 54 102
E 52 55 99
E 52 56 99
E 52 57 98
E 52 58 99
E 52 59 95
E 52 60 98
E 52 61 100
E 52 62 96
E 52 63 100
E 52 64 101
E 52 65 89
E 52 66 93
E 52 67 103
E 52 68 95
E 52 69 99
E 52 70 98
E 52 71 87
E 52 72 93
E 52 73 106
E 52 74 97
E 52 75 103
E 52 76 100
E 52 77 93
E 52 78 92
E 52 79 101
E 52 80 102
E 53 54 97
E 53 55 99
E 53 56 108
E 53 57 98
E 53 58 88
E 53 59 96
E 53 60 100
E 53 61 92
E 53 62 111
E 53 63 97
E 53 64 95
E 53 65 106
E 53 66 91
E 53 67 98
E 53 68 97
E 53 69 104
E 53 70 98
E 53 71 101
E 53 72 101
E 53 73 100
E 53 74 95
E 53 75 101
E 53 76 97
E 53 77 103
E 53 78 102
E 53 79 102
E 53 80 98
E 54 55 93
E 54 56 105
E 54 57 105
E 54 58 98
E 54 59 103
E 54 60 106
E 54 61 101
E 54 62 100
E 54 63 95
E 54 64 97
E 54 65 105
E 54 66 96
E 54 67 96
E 54 68 102
E 54 69 95
E 54 70 92
E 54 71 99
E 54 72 101
E 54 73 91
E 54 74 101
E 54 75 94
E 54 76 97
E 54 77 87
E 54 78 111
E 54 79 100
E 54 80 97
E 55 56 102
E 55 57 103
E 55 58 100
E 55 59 103
E 55 60 95
E 55 61 97
E 55 62 103
E 55 63 102
E 55 64 99
E 55 65 91
E 55 66 97
E 55 67 100
E 55 68 106
E 55 69 96
E 55 70 101
E 55 71 99
E 55 72 104
E 55 73 104
E 55 74 91
E 55 75 96
E 55 76 107
E 55 77 96
E 55 78 96
E 55 79 100
E 55 80 87
E 56 57 95
E 56 58 83
E 56 59 97
E 56 60 99
E 56 61 98
E 56 62 102
E 56 63 101
E 56 64 98
E 56 65 100
E 56 66 114
E 56 67 97
E 56 68 102
E 56 69 108
E 56 70 87
E 56 71 103
E 56 72 101
E 56 73 101
E 56 74 95
E 56 75 96
E 56 76 105
E 56 77 98
E 56 78 97
E 56 79 92
E 56 80 97
E 57 58 98
E 57 59 100
E 57 60 102
E 57 61 99
E 57 62 95
E 57 63 94
E 57 64 96
E 57 65 105
E 57 66 92
E 57 67 101
E 57 68 91
E 57 69 98
E 57 70 106
E 57 71 100
E 57 72 99
E 57 73 95
E 57 74 94
E 57 75 99
E 57 76 108
E 57 77 108
E 57 78 91
E 57 79 97
E 57 80 103
E 58 59 95
E 58 60 101
E 58 61 98
E 58 62 105
E 58 63 100
E 58 64 109
E 58 65 106
E 58 66 103
E 58 67 90
E 58 68 104
E 58 69 106
E 58 70 102
E 58 71 99
E 58 72 100
E 58 73 99
E 58 74 101
E 58 75 91
E 58 76 96
E 58 77 101
E 58 78 101
E 58 79 95
E 58 80 105
E 59 60 103
E 59 61 110
E 59 62 104
E 59 63 98
E 59 64 101
E 59 65 105
E 59 66 106
E 59 67 103
E 59 68 106
E 59 69 102
E 59 70 95
E 59 71 86
E 59 72 97
E 59 73 103
E 59 74 97
E 59 75 108
E 59 76 101
E 59 77 91
E 59 78 99
E 59 79 102
E 59 80 104
E 60 61 94
E 60 62 108
E 60 63 95
E 60 64 104
E 60 65 109
E 60 66 102
E 60 67 102
E 60 68 103
E 60 69 102
E 60 70 108
E 60 71 98
E 60 72 101
E 60 73 96
E 60 74 103
E 60 75 92
E 60 76 96
E 60 77 92
E 60 78 102
E 60 79 102
E 60 80 96
E 61 62 98
E 61 63 106
E 61 64 94
E 61 65 93
E 61 66 98
E 61 67 107
E 61 68 103
E 61 69 92
E 61 70 101
E 61 71 101
E 61 72 99
E 61 73 97
E 61 74 101
E 61 75 103
E 61 76 97
E 61 77 100
E 61 78 93
E 61 79 94
E 61 80 103
E 62 63 99
E 62 64 103
E 62 65 97
E 62 66 91
E 62 67 96
E 62 68 98
E 62 69 102
E 62 70 104
E 62 71 99
E 62 72 99
E 62 73 98
E 62 74 103
E 62 75 103
E 62 76 101
E 62 77 99
E 62 78 97
E 62 79 94
E 62 80 98
E 63 64 100
E 63 65 98
E 63 66 98
E 63 67 96
E 63 68 95
E 63 69 104
E 63 70 103
E 63 71 91
E 63 72 94
E 63 73 102
E 63 74 99
E 63 75 101
E 63 76 97
E 63 77 101
E 63 78 91
E 63 79 104
E 63 80 98
E 64 65 97
E 64 66 105
E 64 67 96
E 64 68 98
E 64 69 103
E 64 70 105
E 64 71 107
E 64 72 101
E 64 73 96
E 64 74 96
E 64 75 100
E 64 76 106
E 64 77 100
E 64 78 101
E 64 79 97
E 64 80 96
E 65 66 107
E 65 67 99
E 65 68 97
E 65 69 91
E 65 70 100
E 65 71 97
E 65 72 96
E 65 73 101
E 65 74 103
E 65 75 97
E 65 76 101
E 65 77 96
E 65 78 99
E 65 79 95
E 65 80 105
E 66 67 96
E 66 68 98
E 66 69 106
E 66 70 104
E 66 71 96
E 66 72 89
E 66 73 91
E 66 74 96
E 66 75 93
E 66 76 100
E 66 77 95
E 66 78 98
E 66 79 106
E 66 80 101
E 67 68 94
E 67 69 92
E 67 70 88
E 67 71 95
E 67 72 103
E 67 73 95
E 67 74 95
E 67 75 104
E 67 76 100
E 67 77 99
E 67 78 100
E 67 79 97
E 67 80 98
E 68 69 95
E 68 70 101
E 68 71 102
E 68 72 103
E 68 73 102
E 68 74 97
E 68 75 101
E 68 76 105
E 68 77 98
E 68 78 108
E 68 79 99
E 68 80 90
E 69 70 91
E 69 71 100
E 69 72 103
E 69 73 111
E 69 74 101
E 69 75 107
E 69 76 97
E 69 77 100
E 69 78 94
E 69 79 99
E 69 80 94
E 70 71 100
E 70 72 102
E 70 73 97
E 70 74 106
E 70 75 102
E 70 76 105
E 70 77 98
E 70 78 92
E 70 79 97
E 70 80 105
E 71 72 93
E 71 73 104
E 71 74 100
E 71 75 94
E 71 76 90
E 71 77 100
E 71 78 97
E 71 79 93
E 71 80 95
E 72 73 96
E 72 74 93
E 72 75 107
E 72 76 98
E 72 77 97
E 72 78 106
E 72 79 100
E 72 80 97
E 73 74 112
E 73 75 102
E 73 76 94
E 73 77 106
E 73 78 97
E 73 79 109
E 73 80 100
E 74 75 99
E 74 76 99
E 74 77 96
E 74 78 90
E 74 79 98
E 74 80 108
E 75 76 103
E 75 77 100
E 75 78 98
E 75 79 112
E 75 80 96
E 76 77 99
E 76 78 97
E 76 79 113
E 76 80 101
E 77 78 101
E 77 79 104
E 77 80 98
E 78 79 104
E 78 80 111
E 79 80 105
END

SECTION Terminals
Terminals 20
T 1
T 2
T 3
T 4
T 5
T 6
T 7
T 8
T 9
T 10
T 11
T 12
T 13
T 14
T 15
T 16
T 17
T 18
T 19
T 20
END

EOF
